ilp_joint/output/diffusion_ilp.lp
Maximize
  0.0197108783534334 Z_339_0_0 + 0.0394559529067176 Z_339_0_1
   + 0.1464866483789677 Z_339_0_2 + 0.0330872099328435 Z_339_0_3
Subject To
 constraint1_3390: Z_339_0_0 + Z_339_0_1 + Z_339_0_2 + Z_339_0_3 <= 1
 constraint2_3390: Z_339_0_0 <= 1
 constraint2_3391: Z_339_0_1 <= 1
 constraint2_3392: Z_339_0_2 <= 1
 constraint2_3393: Z_339_0_3 <= 1
Bounds
Binaries
 Z_339_0_0 Z_339_0_1 Z_339_0_2 Z_339_0_3
End
