ilp_joint/output/diffusion_ilp.mps
NAME diffusion_srl_ilp
* Max problem is converted into Min one
ROWS
 N  OBJ
 L  constraint1_1562
 L  constraint1_1563
 L  constraint1_1561
 L  constraint1_1560
 L  constraint2_3660
 L  constraint2_3661
 L  constraint2_3662
 L  constraint2_3663
 L  constraint2_1560
 L  constraint2_1561
 L  constraint2_1562
 L  constraint2_1563
COLUMNS
    MARKER    'MARKER'                 'INTORG'
    Z_156_2_0  OBJ       -3.1296893152213970e-02
    Z_156_2_0  constraint1_1562  1
    Z_156_2_0  constraint2_1560  1
    Z_156_2_1  OBJ       -2.1788558782524600e-01
    Z_156_2_1  constraint1_1562  1
    Z_156_2_1  constraint2_1561  1
    Z_156_2_2  OBJ       -1.0068188114179978e-01
    Z_156_2_2  constraint1_1562  1
    Z_156_2_2  constraint2_1562  1
    Z_156_2_3  OBJ       -2.5861830425869092e-01
    Z_156_2_3  constraint1_1562  1
    Z_156_2_3  constraint2_1563  1
    Z_156_2_4  OBJ       -2.9151733362204929e-01
    Z_156_2_4  constraint1_1562  1
    Z_156_3_0  OBJ       -3.0576239948344127e-02
    Z_156_3_0  constraint1_1563  1
    Z_156_3_0  constraint2_1560  1
    Z_156_3_1  OBJ       -8.4828586199712036e-02
    Z_156_3_1  constraint1_1563  1
    Z_156_3_1  constraint2_1561  1
    Z_156_3_2  OBJ       -4.3657127727535654e-02
    Z_156_3_2  constraint1_1563  1
    Z_156_3_2  constraint2_1562  1
    Z_156_3_3  OBJ       -1.0284311102761395e-01
    Z_156_3_3  constraint1_1563  1
    Z_156_3_3  constraint2_1563  1
    Z_156_3_4  OBJ       -6.3809493509679416e-01
    Z_156_3_4  constraint1_1563  1
    Z_156_1_0  OBJ       -3.1703401298291379e-04
    Z_156_1_0  constraint1_1561  1
    Z_156_1_0  constraint2_1560  1
    Z_156_1_1  OBJ       -2.6404815503359973e-03
    Z_156_1_1  constraint1_1561  1
    Z_156_1_1  constraint2_1561  1
    Z_156_1_2  OBJ       -6.3742222529528336e-01
    Z_156_1_2  constraint1_1561  1
    Z_156_1_2  constraint2_1562  1
    Z_156_1_3  OBJ       -2.8455620981596760e-03
    Z_156_1_3  constraint1_1561  1
    Z_156_1_3  constraint2_1563  1
    Z_156_1_4  OBJ       -2.5677469704323796e-01
    Z_156_1_4  constraint1_1561  1
    Z_156_0_0  OBJ       -3.1703401298291379e-04
    Z_156_0_0  constraint1_1560  1
    Z_156_0_0  constraint2_1560  1
    Z_156_0_1  OBJ       -2.6404815503359973e-03
    Z_156_0_1  constraint1_1560  1
    Z_156_0_1  constraint2_1561  1
    Z_156_0_2  OBJ       -6.3742222529528336e-01
    Z_156_0_2  constraint1_1560  1
    Z_156_0_2  constraint2_1562  1
    Z_156_0_3  OBJ       -2.8455620981596760e-03
    Z_156_0_3  constraint1_1560  1
    Z_156_0_3  constraint2_1563  1
    Z_156_0_4  OBJ       -2.5677469704323796e-01
    Z_156_0_4  constraint1_1560  1
    MARKER    'MARKER'                 'INTEND'
RHS
    RHS1      constraint1_1562  1
    RHS1      constraint1_1563  1
    RHS1      constraint1_1561  1
    RHS1      constraint1_1560  1
    RHS1      constraint2_3660  1
    RHS1      constraint2_3661  1
    RHS1      constraint2_3662  1
    RHS1      constraint2_3663  1
    RHS1      constraint2_1560  1
    RHS1      constraint2_1561  1
    RHS1      constraint2_1562  1
    RHS1      constraint2_1563  1
BOUNDS
 UP BND1      Z_156_2_0  1
 UP BND1      Z_156_2_1  1
 UP BND1      Z_156_2_2  1
 UP BND1      Z_156_2_3  1
 UP BND1      Z_156_2_4  1
 UP BND1      Z_156_3_0  1
 UP BND1      Z_156_3_1  1
 UP BND1      Z_156_3_2  1
 UP BND1      Z_156_3_3  1
 UP BND1      Z_156_3_4  1
 UP BND1      Z_156_1_0  1
 UP BND1      Z_156_1_1  1
 UP BND1      Z_156_1_2  1
 UP BND1      Z_156_1_3  1
 UP BND1      Z_156_1_4  1
 UP BND1      Z_156_0_0  1
 UP BND1      Z_156_0_1  1
 UP BND1      Z_156_0_2  1
 UP BND1      Z_156_0_3  1
 UP BND1      Z_156_0_4  1
ENDATA
