ilp_joint/output/diffusion_ilp.sol
# Solution for model diffusion_srl_ilp
# Objective value = 1.4648664837896774e-01
Z_339_0_0 0
Z_339_0_1 0
Z_339_0_2 1
Z_339_0_3 0
